98 100
13 34 2
32 5 1
13 6 1
33 32 1
6 22 1
34 29 1
20 15 1
17 23 1
23 2 1
9 18 1
31 9 1
14 29 1
35 5 1
11 14 1
6 6 1
29 12 1
28 4 1
1 3 1
24 3 1
13 14 1
32 19 1
21 14 1
34 8 1
31 19 1
21 9 1
22 21 1
32 4 1
22 24 1
13 19 1
35 9 2
26 24 1
5 2 1
4 33 1
31 8 1
35 4 1
11 7 1
4 11 1
31 26 1
20 35 1
30 32 1
31 12 1
25 7 1
31 23 1
9 10 1
4 34 1
33 33 1
24 27 1
19 11 1
3 28 1
6 28 1
2 7 1
10 7 1
25 14 1
22 23 1
19 6 1
12 19 1
9 23 1
29 25 1
33 8 1
7 28 1
25 19 1
24 12 1
22 15 1
17 13 1
17 1 1
4 23 1
12 27 1
12 10 1
23 14 1
8 25 1
9 3 1
9 25 1
6 8 1
8 15 1
32 21 1
7 10 1
9 12 1
23 1 1
9 32 1
12 29 1
15 1 1
14 3 1
17 30 1
9 21 1
21 29 1
24 16 1
5 24 1
29 4 1
34 21 1
4 13 1
5 34 1
10 11 1
4 21 1
18 14 1
24 20 1
6 13 1
32 13 1
4 14 1
40 40 
40 40 
40 40 
40 40 
40 40 
40 40 
40 40 
40 40 
40 40 
40 40 
40 40 
40 40 
40 40 
40 40 
40 40 
40 40 
40 40 
40 40 
40 40 
40 40 
40 40 
40 40 
40 40 
40 40 
40 40 
40 40 
40 40 
40 40 
40 40 
40 40 
40 40 
40 40 
40 40 
40 40 
40 40 
40 40 
40 40 
40 40 
40 40 
40 40 
40 40 
40 40 
40 40 
40 40 
40 40 
40 40 
40 40 
40 40 
40 40 
40 40 
40 40 
40 40 
40 40 
40 40 
40 40 
40 40 
40 40 
40 40 
40 40 
40 40 
40 40 
40 40 
40 40 
40 40 
40 40 
40 40 
40 40 
40 40 
40 40 
40 40 
40 40 
40 40 
40 40 
40 40 
40 40 
40 40 
40 40 
40 40 
40 40 
40 40 
40 40 
40 40 
40 40 
40 40 
40 40 
40 40 
40 40 
40 40 
40 40 
40 40 
40 40 
40 40 
40 40 
40 40 
40 40 
40 40 
40 40 
40 40 
40 40 
40 40 
